NAME: random-27-22905
TYPE: TSP
COMMENT: size=27 seed=22905
DIMENSION: 56
EDGE_WEIGHT_TYPE: EUC_2D
NODE_COORD_SECTION
+0 335 581
-0 335 581
+1 309 455
-1 501 387
+2 642 22
-2 952 966
+3 909 233
-3 307 811
+4 251 873
-4 246 303
+5 601 635
-5 615 868
+6 293 722
-6 13 824
+7 864 355
-7 835 204
+8 243 346
-8 277 719
+9 965 570
-9 742 909
+10 409 425
-10 521 95
+11 744 617
-11 191 547
+12 408 673
-12 173 991
+13 178 808
-13 24 439
+14 699 60
-14 875 826
+15 923 998
-15 70 91
+16 352 807
-16 73 774
+17 264 582
-17 894 499
+18 813 55
-18 774 884
+19 224 971
-19 651 718
+20 308 533
-20 384 862
+21 996 382
-21 664 715
+22 31 946
-22 513 963
+23 145 78
-23 827 311
+24 594 707
-24 694 762
+25 423 886
-25 289 992
+26 545 819
-26 972 506
+27 143 321
-27 491 122
PRECEDENCE_SECTION
+0 -0
+1 -1
+2 -2
+3 -3
+4 -4
+5 -5
+6 -6
+7 -7
+8 -8
+9 -9
+10 -10
+11 -11
+12 -12
+13 -13
+14 -14
+15 -15
+16 -16
+17 -17
+18 -18
+19 -19
+20 -20
+21 -21
+22 -22
+23 -23
+24 -24
+25 -25
+26 -26
+27 -27
EOF
